NAME: instance_534
TYPE: TSP
DIMENSION: 20
EDGE_WEIGHT_TYPE: EUC_2D
NODE_COORD_SECTION
0 27.61 46.74
1 60.40 9.63
2 70.68 44.70
3 68.97 34.10
4 80.83 32.56
5 90.89 23.20
6 83.58 64.54
7 20.81 13.42
8 5.91 48.40
9 1.17 20.58
10 68.74 17.81
11 96.41 17.40
12 18.92 82.04
13 72.69 47.13
14 11.18 58.67
15 60.46 9.99
16 18.45 3.36
17 48.35 12.09
18 26.71 1.58
19 74.10 62.07
EOF
